74 73 78 77 76 77 74 77 75 74 79 76 71 76 79 74 72 78 74 79 
77 74 74 74 75 76 74 75 76 73 78 81 72 79 78 75 80 75 72 76 
78 78 76 73 76 74 76 77 76 75 78 72 77 79 80 78 77 77 76 72 
77 78 75 75 77 75 74 72 76 74 75 76 76 79 79 75 78 74 80 78 
76 76 74 77 77 78 74 80 77 72 79 73 80 78 76 73 77 78 79 80 
75 79 75 79 77 78 78 78 77 74 77 71 81 77 74 76 75 74 72 73 
74 76 74 77 77 77 77 75 76 75 77 75 73 74 80 79 78 74 72 79 
77 79 75 75 77 75 75 77 77 79 79 74 78 76 72 75 79 74 72 72 
78 79 75 79 75 78 76 75 75 74 73 76 81 78 72 73 77 74 79 72 
74 74 77 74 77 74 74 78 75 74 74 80 80 76 71 80 75 74 75 72 
75 76 77 78 77 74 77 79 76 76 79 77 75 79 75 77 76 77 73 73 
75 74 75 78 77 75 75 78 77 72 73 81 72 73 79 78 80 74 75 73 
74 78 77 77 75 78 78 79 76 72 78 78 81 78 71 77 77 76 76 73 
74 76 74 78 77 74 74 79 75 74 77 72 78 77 76 73 80 77 73 74 
78 79 75 74 77 74 77 75 77 72 79 74 76 74 73 76 72 74 76 79 
75 78 75 76 77 76 77 72 76 79 74 74 76 76 78 76 79 77 76 80 
74 78 77 76 76 75 78 80 77 79 75 80 74 78 81 74 80 78 78 78 
75 77 75 73 75 76 78 75 75 76 74 77 72 73 79 74 78 76 72 75 
76 76 77 77 77 76 75 74 75 74 79 74 75 75 73 74 80 74 72 76 
74 73 78 79 75 75 74 78 75 78 76 77 81 77 74 74 72 78 76 79 
77 73 75 78 75 75 74 80 75 73 76 77 77 77 73 79 74 77 76 79 
77 76 74 73 77 75 75 74 76 78 75 72 72 77 81 75 78 76 74 77 
76 74 76 75 75 77 77 80 75 77 74 78 81 75 76 80 72 76 72 75 
75 76 76 79 76 77 75 74 75 78 79 73 79 76 76 78 76 74 76 72 
78 78 74 78 77 75 77 72 76 77 75 80 79 75 74 73 75 76 80 80 
74 74 76 78 77 74 76 76 75 80 79 73 71 77 77 75 76 75 78 76 
77 78 77 77 77 74 76 75 77 78 76 73 74 77 74 80 72 76 73 72 
76 78 74 73 76 78 78 72 77 73 75 72 78 74 77 78 78 76 80 76 
78 79 75 73 76 77 77 76 76 76 74 71 80 73 78 78 76 78 76 77 
76 78 78 78 75 74 76 73 76 79 79 74 71 79 72 77 77 76 79 74 
76 79 75 74 76 76 78 75 76 74 73 75 75 73 79 80 73 78 73 77 
76 75 76 77 76 74 77 73 75 72 73 73 76 79 76 76 79 74 73 78 
78 78 77 73 75 77 74 75 77 72 79 80 78 75 72 80 72 75 78 77 
76 76 76 75 77 74 74 75 77 76 74 73 79 79 75 75 75 77 80 73 
74 73 75 76 77 75 77 76 77 72 73 79 73 73 74 75 72 77 72 79 
78 79 78 73 76 76 74 78 75 74 77 77 79 73 78 75 77 77 78 74 
76 75 74 76 77 78 78 75 76 73 77 79 80 75 81 78 76 74 74 80 
74 79 76 76 75 75 76 78 76 78 73 79 74 75 77 77 72 76 74 75 
77 77 74 75 77 77 77 73 76 76 73 79 75 75 79 72 80 78 76 75 
75 73 74 75 76 74 75 76 77 74 74 74 79 74 79 75 76 76 80 76 
78 74 77 74 77 75 78 78 75 76 78 74 72 76 79 76 77 74 76 75 
78 75 76 74 77 76 75 74 76 75 74 77 72 76 81 80 73 78 79 79 
77 79 77 74 76 74 78 78 75 79 76 72 79 76 76 73 72 74 78 73 
75 73 78 73 75 76 76 73 75 72 73 77 74 78 76 77 73 74 75 73 
74 79 74 75 77 78 75 77 76 73 73 73 76 76 80 77 74 75 78 78 
77 74 75 73 76 75 78 73 75 75 73 75 71 75 79 76 79 75 75 80 
77 77 76 79 76 76 78 75 76 73 75 76 79 77 73 79 80 78 79 77 
77 79 75 76 75 74 75 78 77 75 74 77 74 77 71 76 77 78 80 72 
75 74 75 77 75 76 75 79 77 80 79 76 77 74 79 74 78 75 79 75 
78 74 78 75 76 74 78 77 75 78 76 71 76 79 78 76 77 77 78 72 
74 74 74 74 77 78 78 73 75 76 75 81 81 74 71 75 80 76 78 75 
75 74 78 76 76 77 74 77 77 73 75 81 79 74 72 80 78 74 72 78 
75 79 78 77 77 74 76 78 77 74 79 81 74 75 81 73 74 76 73 79 
78 79 75 75 76 76 77 80 75 78 78 73 73 75 81 72 72 77 75 73 
74 77 74 79 77 76 77 79 76 74 74 76 78 79 76 73 77 74 72 80 
74 77 76 74 76 78 78 72 75 72 78 75 73 79 71 78 74 76 77 79 
77 73 74 73 77 74 74 77 77 76 74 71 76 76 77 74 76 76 78 72 
74 74 78 77 75 76 78 78 75 77 74 79 79 77 81 78 80 75 74 77 
74 78 75 79 76 78 75 72 75 80 79 81 76 74 73 77 79 74 73 72 
75 77 76 75 77 75 74 80 77 75 76 77 79 77 80 77 78 74 74 72 
78 77 76 76 76 77 75 73 77 75 74 71 74 78 80 75 72 76 75 75 
77 74 77 76 77 76 74 80 75 79 78 81 76 75 78 79 73 77 73 79 
77 73 78 75 75 77 77 74 75 76 73 80 79 73 80 73 77 76 80 80 
77 73 77 78 77 78 74 74 77 74 74 79 81 79 76 80 80 78 80 75 
78 76 77 74 75 76 74 76 77 78 75 78 76 75 74 77 75 74 73 74 
75 75 75 76 76 74 78 80 77 78 77 76 77 76 73 72 72 75 79 75 
74 76 74 76 76 74 75 75 76 78 76 74 80 78 81 80 72 75 78 72 
78 77 77 73 75 78 75 75 76 77 75 76 80 79 73 76 74 75 72 74 
77 78 75 79 75 78 77 80 75 76 77 80 80 74 81 76 72 74 79 75 
75 77 76 78 76 78 76 75 77 78 79 72 73 79 81 80 73 75 74 80 
77 74 75 77 75 78 78 73 75 75 76 81 74 76 77 75 80 74 76 79 
77 76 78 76 76 78 76 74 77 72 76 79 76 73 71 80 77 76 79 72 
78 76 78 78 75 76 75 79 76 73 78 80 77 77 79 72 74 76 74 78 
75 78 74 79 75 78 74 78 75 78 75 79 76 78 72 75 75 78 80 75 
75 77 74 75 75 78 75 74 76 78 73 74 73 76 71 72 74 76 74 80 
78 76 78 77 76 77 76 80 76 77 74 75 74 73 71 72 80 78 80 73 
75 73 75 75 75 78 76 80 77 74 74 81 75 78 81 74 76 77 75 76 
77 73 74 76 76 74 78 79 75 77 74 81 74 75 72 76 74 77 74 72 
76 75 78 78 76 77 78 79 76 77 77 72 72 76 78 77 80 77 75 72 
77 73 77 73 77 76 74 72 76 72 78 81 75 75 71 80 79 75 76 76 
76 73 77 79 77 78 74 73 77 74 75 75 78 73 77 77 73 78 73 77 
76 77 75 73 77 78 76 80 77 72 74 74 77 79 71 72 77 75 77 79 
75 77 78 73 76 76 74 74 75 75 75 72 79 74 72 78 72 74 78 74 
74 75 78 79 76 78 77 73 76 79 78 75 81 73 72 80 80 78 78 73 
75 73 78 74 77 76 78 76 77 73 79 81 76 77 75 74 77 74 75 77 
74 77 76 77 77 78 74 79 75 74 78 76 76 78 77 76 80 75 78 78 
77 77 76 78 77 78 76 77 76 77 73 76 80 76 78 74 78 76 78 72 
75 76 75 79 76 78 74 75 77 73 78 71 79 76 75 76 73 76 72 77 
74 74 76 74 76 78 74 72 77 79 73 78 79 79 74 74 73 75 73 73 
74 74 78 73 77 77 76 78 77 77 74 81 75 74 72 76 75 75 80 73 
77 76 76 77 77 77 76 73 75 77 79 74 79 73 75 75 76 77 77 75 
75 78 78 76 77 74 78 76 76 73 75 73 79 76 79 73 79 77 74 78 
74 79 77 73 75 74 74 74 77 76 76 81 77 78 79 80 80 77 75 79 
74 74 74 76 75 75 76 78 76 79 75 78 76 78 71 80 77 74 77 77 
78 76 78 75 77 77 78 73 75 72 77 71 78 79 80 80 77 78 72 75 
77 77 75 73 77 75 74 78 75 79 79 75 78 77 79 76 73 76 77 78 
77 76 74 73 75 75 78 80 75 72 78 72 73 73 72 77 76 77 73 76 
74 76 77 79 77 75 75 80 76 75 74 80 76 78 72 80 73 78 77 80 
76 76 74 74 76 76 74 72 76 72 74 71 80 74 72 78 75 75 78 76 
74 77 75 78 76 76 76 73 76 78 77 79 71 78 72 80 80 77 72 79 
75 78 75 75 75 75 74 80 77 76 76 71 81 79 74 74 79 77 74 72 
75 76 77 76 76 74 76 78 77 76 76 75 74 75 77 75 75 75 72 76 
78 79 78 75 77 74 76 75 75 80 79 80 81 74 81 79 72 75 78 79 
77 78 77 77 77 74 78 73 75 72 77 76 80 78 77 80 76 78 80 73 
77 78 78 74 76 74 76 78 76 75 75 81 77 74 72 73 74 78 75 77 
74 75 77 74 76 75 76 75 75 78 76 71 79 73 80 77 80 74 79 76 
77 76 77 79 76 76 75 78 76 77 78 74 72 76 74 79 78 77 72 77 
78 78 77 77 76 76 75 76 76 76 78 72 80 78 78 78 72 75 77 77 
75 73 77 73 77 75 78 78 76 74 73 77 72 78 79 73 79 78 73 77 
78 78 76 75 76 75 76 75 76 78 75 75 79 78 81 78 80 78 77 80 
75 75 78 76 77 76 75 72 75 77 73 72 80 79 80 76 72 74 74 75 
76 76 74 77 76 74 76 75 75 74 78 73 79 79 79 76 74 75 77 73 
74 74 75 75 75 76 76 75 75 75 79 73 76 74 71 78 78 77 73 75 
74 74 77 78 76 75 76 73 76 78 74 74 79 75 78 72 80 77 74 79 
75 76 74 74 76 77 75 76 76 74 77 77 74 77 80 75 76 78 74 80 
76 76 74 73 77 74 76 77 75 76 76 80 74 79 75 76 74 76 76 76 
74 73 75 79 77 76 75 80 76 77 73 77 81 75 77 79 73 75 79 79 
78 79 75 75 75 76 78 72 77 80 73 76 78 78 78 76 72 77 72 75 
77 73 78 74 76 76 74 74 76 80 77 72 78 73 77 72 74 77 79 73 
78 78 75 76 75 74 76 77 77 78 78 78 79 75 74 78 73 78 77 74 
74 77 75 73 76 76 78 80 75 77 74 76 73 76 76 80 74 77 78 72 
77 76 78 73 77 74 74 79 77 72 78 72 74 77 76 75 78 78 75 72 
75 76 76 75 75 75 74 78 77 74 75 76 71 78 75 78 79 76 75 76 
76 76 76 74 75 74 74 77 76 74 75 76 81 75 76 72 76 78 75 73 
75 77 75 79 76 74 76 78 76 72 78 80 72 74 78 78 77 75 78 72 
76 74 77 77 75 76 74 75 75 74 75 74 78 74 75 77 75 75 76 73 
76 75 77 73 76 78 74 75 75 79 73 80 76 79 81 75 76 74 73 78 
74 76 76 74 75 75 77 77 75 79 79 74 79 77 79 79 77 77 75 73 
77 78 75 78 76 76 74 74 75 75 75 76 74 77 75 75 73 78 77 74 
78 76 76 78 77 74 76 74 76 73 75 71 73 78 80 77 79 75 78 80 
78 77 74 75 75 74 75 79 76 76 76 71 81 79 72 72 73 76 77 76 
78 79 74 77 77 77 75 77 76 72 73 81 78 74 74 74 76 74 73 77 
78 77 77 75 75 75 78 77 77 76 79 80 80 75 76 75 80 74 73 79 
75 73 76 74 77 76 78 76 75 76 77 74 75 78 72 75 77 78 80 79 
75 76 75 74 75 76 74 76 75 79 78 78 80 75 78 72 80 74 80 77 
77 78 74 78 76 75 75 78 77 72 77 76 75 78 79 77 76 74 76 74 
75 75 78 79 76 75 75 80 75 75 77 80 77 73 72 76 74 76 72 74 
78 76 78 74 76 76 77 77 77 73 78 76 79 79 74 76 76 78 76 75 
74 74 77 79 77 78 74 79 76 77 76 81 77 78 78 79 76 75 75 78 
75 78 77 78 77 78 77 78 75 73 79 72 71 76 77 76 72 76 78 75 
78 76 74 74 76 78 77 79 76 75 78 77 77 76 77 73 72 78 79 78 
74 79 76 75 76 76 78 80 77 80 73 78 74 77 76 80 75 77 75 79 
77 78 77 75 76 75 76 72 76 80 78 80 77 78 77 76 77 76 77 78 
76 78 78 76 76 75 75 76 76 78 77 79 73 77 76 78 72 78 79 79 
74 73 74 77 77 75 77 74 77 78 78 73 73 79 76 74 77 76 72 74 
78 73 76 76 75 78 77 73 76 75 76 71 80 76 73 76 77 74 80 73 
78 75 74 76 75 78 75 75 77 72 73 78 76 74 81 76 80 76 79 75 
76 78 77 74 76 75 77 74 75 79 77 73 81 76 79 74 79 77 79 80 
78 77 75 77 76 77 74 79 77 77 76 80 79 78 79 74 72 74 80 77 
74 73 77 75 76 76 74 73 75 80 79 81 75 78 78 78 78 75 74 78 
75 73 75 77 77 78 75 77 77 72 75 80 78 74 71 80 74 76 75 74 
76 79 76 77 77 76 75 75 77 77 76 75 74 77 78 80 79 75 79 76 
76 79 74 75 76 75 75 80 76 78 77 81 72 79 78 78 77 77 76 74 
74 77 75 75 77 77 74 72 77 75 73 72 81 73 74 79 74 74 73 73 
75 79 76 79 75 77 76 75 77 73 76 76 72 75 73 72 73 76 76 79 
75 79 78 76 77 75 75 78 75 77 76 73 76 75 74 80 77 74 80 79 
75 75 74 77 76 75 78 74 77 74 76 73 74 78 78 80 78 74 76 73 
78 74 75 74 75 78 74 75 76 77 74 72 81 76 75 78 75 75 80 78 
77 79 77 76 76 77 74 73 75 75 74 74 77 77 77 74 77 78 80 73 
76 77 74 79 77 75 74 80 75 72 74 81 76 76 73 79 76 75 75 73 
74 79 78 74 76 76 74 74 77 73 74 79 71 76 78 73 75 75 74 72 
75 73 77 74 76 76 78 73 77 78 74 79 77 77 80 79 75 77 79 72 
78 75 77 74 75 74 77 80 75 79 78 72 78 76 76 75 73 74 79 72 
77 79 74 77 75 74 75 74 77 80 78 80 81 74 79 78 79 76 77 75 
75 75 78 79 76 75 78 80 75 75 73 79 71 73 74 77 79 75 77 72 
75 75 74 78 76 74 74 74 76 73 77 75 80 74 73 80 79 77 72 72 
76 74 76 74 77 77 78 75 75 77 76 79 74 79 77 75 76 76 73 74 
78 78 74 79 75 78 78 76 77 79 78 77 73 77 78 80 72 78 77 75 
75 74 74 78 76 77 76 73 77 74 74 75 73 77 73 72 78 74 73 77 
78 76 77 79 76 74 77 78 77 78 78 71 75 74 71 78 80 76 73 74 
75 76 78 77 77 74 76 79 75 76 73 72 81 78 76 78 77 76 72 74 
74 76 75 79 77 76 75 77 76 80 74 80 74 73 77 74 72 74 79 74 
78 79 76 74 77 77 74 77 75 79 73 75 72 78 71 76 79 77 79 78 
77 74 76 74 76 75 75 79 76 73 75 78 71 76 74 77 73 78 77 77 
75 77 78 78 77 78 75 76 76 77 76 74 76 79 79 79 72 78 74 80 
74 78 75 73 76 77 74 77 77 75 77 80 77 75 76 80 79 76 80 77 
76 78 78 75 77 75 78 72 77 78 74 78 81 76 73 72 77 78 74 78 
77 76 77 75 75 74 75 79 76 74 75 77 80 76 71 73 80 76 78 76 
74 74 75 79 76 74 75 74 75 78 78 71 71 73 76 75 80 76 76 79 
78 77 74 73 75 77 76 75 77 73 78 72 75 78 74 76 80 78 73 78 
78 73 78 78 75 77 75 75 75 73 73 78 76 75 81 74 76 76 79 72 
76 78 78 75 77 78 78 75 76 75 73 80 73 78 71 76 79 75 79 75 
76 75 78 78 75 78 78 73 75 72 75 75 78 77 75 76 78 77 76 76 
78 74 77 78 76 75 75 74 77 77 76 78 71 78 73 72 73 74 76 72 
78 78 75 76 76 76 75 78 77 75 76 72 74 75 81 73 74 76 76 76 
76 77 76 73 75 76 74 80 76 79 74 76 75 78 79 80 73 77 74 78 
74 76 75 77 75 77 77 80 77 77 74 79 72 74 72 80 74 77 72 79 
74 76 76 77 77 75 74 80 77 76 74 75 75 78 74 75 75 75 80 73 
75 73 74 79 77 77 77 72 76 79 77 78 79 77 80 75 79 77 80 76 
77 76 74 73 75 78 77 79 77 74 73 78 81 79 71 80 76 74 72 72 
75 76 76 74 75 77 78 72 75 78 78 81 77 77 81 80 73 77 73 74 
75 74 76 73 76 77 75 74 75 75 75 71 75 76 79 74 77 75 72 74 
77 76 75 76 76 77 77 79 75 74 76 79 77 79 77 77 76 76 77 76 
74 79 74 75 75 74 78 74 75 75 78 72 80 79 73 73 73 74 77 77 
77 76 77 73 75 74 75 73 77 80 78 78 80 74 75 79 74 78 79 75 
74 77 77 77 77 78 77 75 76 77 78 75 76 79 78 75 76 74 72 79 
78 78 74 76 77 76 75 74 77 77 76 78 76 77 76 75 72 75 77 75 
77 77 74 78 75 75 76 76 77 74 78 78 75 78 81 80 76 77 72 79 
74 74 74 77 77 74 76 73 77 73 73 80 80 74 79 72 80 77 75 80 
76 77 75 77 76 77 77 77 75 75 74 79 81 77 77 79 77 75 74 75 